sat
(
  (define-fun G () String
    "")
  (define-fun J () String
    "bba")
  (define-fun M () String
    "")
  (define-fun H () String
    "")
  (define-fun K () String
    "")
  (define-fun N () String
    "baabbaabbaabaabbaa")
)
